NAME : XML100_3373_06
DIMENSION : 101
NB_CLUSTERS : 28
CLUSTERING_ALG : DBSCAN
CLUSTERING_PARAMS : eps(46), minSamples(3)
CLUSTERS
1 0
2 1 7 8 9 17 25 31 36 53 59 64 86 91 95
3 2 6 19 27
4 4 10 22 58 62 66 71 72
5 13 30 78 83
6 28 32 61 85
7 16 40 69 75 77 89 90
8 18 43 52 92 97
9 12 35 46 93 98
10 47 73 100
11 21 37
12 29 68
13 24 88
14 20 48 82
15 42 57
16 34 45 79
17 23 38
18 94 96 99
19 50 63
20 41 55 56
21 54 80
22 11 84
23 26 67
24 65 81
25 3 74
26 5 14 15 39 60 87
27 33 44 70 76
28 49 51
EOF